p cnf 941 2571
a 1 2 3 4 5 6 7 8 9 10 11 12 13 14 15 16 17 18 19 20 21 22 23 24 25 26 27 28 29 30 31 32 33 34 35 36 37 38 39 40 41 42 43 44 45 46 47 48 49 50 51 52 53 54 55 56 57 58 59 60 61 62 63 64 0
e 65 66 67 68 69 70 71 72 73 74 75 76 77 78 79 80 81 82 83 84 85 86 87 88 89 90 91 92 93 94 95 96 97 98 99 100 101 102 103 104 105 106 107 108 109 110 111 112 113 114 115 116 117 118 119 120 121 122 123 124 125 126 127 128 129 130 131 132 133 134 135 136 137 138 139 140 141 142 143 144 145 146 147 148 149 150 151 152 153 154 155 156 157 158 159 160 161 162 163 164 165 166 167 168 169 170 171 172 173 174 175 176 177 178 179 180 181 182 183 184 185 186 187 188 189 190 191 192 193 194 195 196 197 198 199 200 201 202 203 204 205 206 207 208 209 210 211 212 213 214 215 216 217 218 219 220 221 222 223 224 225 226 227 228 229 230 231 232 233 234 235 236 237 238 239 240 241 242 243 244 245 246 247 248 249 250 251 252 253 254 255 256 257 258 259 260 261 262 263 264 265 266 267 268 269 270 271 272 273 274 275 276 277 278 279 280 281 282 283 284 285 286 287 288 289 290 291 292 293 294 295 296 297 298 299 300 301 302 303 304 305 306 307 308 309 310 311 312 313 314 315 316 317 318 319 320 321 322 323 324 325 326 327 328 329 330 331 332 333 334 335 336 337 338 339 340 341 342 343 344 345 346 347 348 349 350 351 352 353 354 355 356 357 358 359 360 361 362 363 364 365 366 367 368 369 370 371 372 373 374 375 376 377 378 379 380 381 382 383 384 385 386 387 388 389 390 391 392 393 394 395 396 397 398 399 400 401 402 403 404 405 406 407 408 409 410 411 412 413 414 415 416 417 418 419 420 421 422 423 424 425 426 427 428 429 430 431 432 433 434 435 436 437 438 439 440 441 442 443 444 445 446 447 448 449 450 451 452 453 454 455 456 457 458 459 460 461 462 463 464 465 466 467 468 469 470 471 472 473 474 475 476 477 478 479 480 481 482 483 484 485 486 487 488 489 490 491 492 493 494 495 496 497 498 499 500 501 502 503 504 505 506 507 508 509 510 511 512 513 514 515 516 517 518 519 520 521 522 523 524 525 526 527 528 529 530 531 532 533 534 535 536 537 538 539 540 541 542 543 544 545 546 547 548 549 550 551 552 553 554 555 556 557 558 559 560 561 562 563 564 565 566 567 568 569 570 571 572 573 574 575 576 577 578 579 580 581 582 583 584 585 586 587 588 589 590 591 592 593 594 595 596 597 598 599 600 601 602 603 604 605 606 607 608 609 610 611 612 613 614 615 616 617 618 619 620 621 622 623 624 625 626 627 628 629 630 631 632 633 634 635 636 637 638 639 640 641 642 643 644 645 646 647 648 649 650 651 652 653 654 655 656 657 658 659 660 661 662 663 664 665 666 667 668 669 670 671 672 673 674 675 676 677 678 679 680 681 682 683 684 685 686 687 688 689 690 691 692 693 694 695 696 697 698 699 700 701 702 703 704 705 706 707 708 709 710 711 712 713 714 715 716 717 718 719 720 721 722 723 724 725 726 727 728 729 730 731 732 733 734 735 736 737 738 739 740 741 742 743 744 745 746 747 748 749 750 751 752 753 754 755 756 757 758 759 760 761 762 763 764 765 766 767 768 769 770 771 772 773 774 775 776 777 778 779 780 781 782 783 784 785 786 787 788 789 790 791 792 793 794 795 796 797 798 799 800 801 802 803 804 805 806 807 808 809 810 811 812 813 814 815 816 817 818 819 820 821 822 823 824 825 826 827 828 829 830 831 832 833 834 835 836 837 838 839 840 841 842 843 844 845 846 847 848 849 850 851 852 853 854 855 856 857 858 859 860 861 862 863 864 865 866 867 868 869 870 871 872 873 874 875 876 877 878 879 880 881 882 883 884 885 886 887 888 889 890 891 892 893 894 895 896 897 898 899 900 901 902 903 904 905 906 907 908 909 910 911 912 913 914 915 916 917 918 919 920 921 922 923 924 925 926 927 928 929 930 931 932 933 934 935 936 937 938 939 0
129 65 -97 0
129 -65 97 0
-129 65 97 0
-129 -65 -97 0
130 66 -98 0
130 -66 98 0
-130 66 98 0
-130 -66 -98 0
131 67 -99 0
131 -67 99 0
-131 67 99 0
-131 -67 -99 0
132 68 -100 0
132 -68 100 0
-132 68 100 0
-132 -68 -100 0
133 69 -101 0
133 -69 101 0
-133 69 101 0
-133 -69 -101 0
134 70 -102 0
134 -70 102 0
-134 70 102 0
-134 -70 -102 0
135 71 -103 0
135 -71 103 0
-135 71 103 0
-135 -71 -103 0
136 72 -104 0
136 -72 104 0
-136 72 104 0
-136 -72 -104 0
137 73 -105 0
137 -73 105 0
-137 73 105 0
-137 -73 -105 0
138 74 -106 0
138 -74 106 0
-138 74 106 0
-138 -74 -106 0
139 75 -107 0
139 -75 107 0
-139 75 107 0
-139 -75 -107 0
140 76 -108 0
140 -76 108 0
-140 76 108 0
-140 -76 -108 0
141 77 -109 0
141 -77 109 0
-141 77 109 0
-141 -77 -109 0
142 78 -110 0
142 -78 110 0
-142 78 110 0
-142 -78 -110 0
143 79 -111 0
143 -79 111 0
-143 79 111 0
-143 -79 -111 0
144 80 -112 0
144 -80 112 0
-144 80 112 0
-144 -80 -112 0
145 81 -113 0
145 -81 113 0
-145 81 113 0
-145 -81 -113 0
146 82 -114 0
146 -82 114 0
-146 82 114 0
-146 -82 -114 0
147 83 -115 0
147 -83 115 0
-147 83 115 0
-147 -83 -115 0
148 84 -116 0
148 -84 116 0
-148 84 116 0
-148 -84 -116 0
149 85 -117 0
149 -85 117 0
-149 85 117 0
-149 -85 -117 0
150 86 -118 0
150 -86 118 0
-150 86 118 0
-150 -86 -118 0
151 87 -119 0
151 -87 119 0
-151 87 119 0
-151 -87 -119 0
152 88 -120 0
152 -88 120 0
-152 88 120 0
-152 -88 -120 0
153 89 -121 0
153 -89 121 0
-153 89 121 0
-153 -89 -121 0
154 90 -122 0
154 -90 122 0
-154 90 122 0
-154 -90 -122 0
155 91 -123 0
155 -91 123 0
-155 91 123 0
-155 -91 -123 0
156 92 -124 0
156 -92 124 0
-156 92 124 0
-156 -92 -124 0
157 93 -125 0
157 -93 125 0
-157 93 125 0
-157 -93 -125 0
158 94 -126 0
158 -94 126 0
-158 94 126 0
-158 -94 -126 0
159 95 -127 0
159 -95 127 0
-159 95 127 0
-159 -95 -127 0
160 96 -128 0
160 -96 128 0
-160 96 128 0
-160 -96 -128 0
161 129 130 131 132 133 134 135 136 137 138 139 140 141 142 143 144 145 146 147 148 149 150 151 152 153 154 155 156 157 158 159 160 0
-161 -160 0
-161 -159 0
-161 -158 0
-161 -157 0
-161 -156 0
-161 -155 0
-161 -154 0
-161 -153 0
-161 -152 0
-161 -151 0
-161 -150 0
-161 -149 0
-161 -148 0
-161 -147 0
-161 -146 0
-161 -145 0
-161 -144 0
-161 -143 0
-161 -142 0
-161 -141 0
-161 -140 0
-161 -139 0
-161 -138 0
-161 -137 0
-161 -136 0
-161 -135 0
-161 -134 0
-161 -133 0
-161 -132 0
-161 -131 0
-161 -130 0
-161 -129 0
162 97 0
-162 -97 0
163 98 -162 0
-163 162 0
-163 -98 0
164 -163 0
-164 163 0
165 99 -164 0
-165 164 0
-165 -99 0
166 -165 0
-166 165 0
167 100 -166 0
-167 166 0
-167 -100 0
168 -167 0
-168 167 0
169 101 -168 0
-169 168 0
-169 -101 0
170 -169 0
-170 169 0
171 102 -170 0
-171 170 0
-171 -102 0
172 -171 0
-172 171 0
173 103 -172 0
-173 172 0
-173 -103 0
174 -173 0
-174 173 0
175 104 -174 0
-175 174 0
-175 -104 0
176 -175 0
-176 175 0
177 105 -176 0
-177 176 0
-177 -105 0
178 -177 0
-178 177 0
179 106 -178 0
-179 178 0
-179 -106 0
180 -179 0
-180 179 0
181 107 -180 0
-181 180 0
-181 -107 0
182 -181 0
-182 181 0
183 108 -182 0
-183 182 0
-183 -108 0
184 -183 0
-184 183 0
185 109 -184 0
-185 184 0
-185 -109 0
186 -185 0
-186 185 0
187 110 -186 0
-187 186 0
-187 -110 0
188 -187 0
-188 187 0
189 111 -188 0
-189 188 0
-189 -111 0
190 -189 0
-190 189 0
191 112 -190 0
-191 190 0
-191 -112 0
192 -191 0
-192 191 0
193 113 -192 0
-193 192 0
-193 -113 0
194 -193 0
-194 193 0
195 114 -194 0
-195 194 0
-195 -114 0
196 -195 0
-196 195 0
197 115 -196 0
-197 196 0
-197 -115 0
198 -197 0
-198 197 0
199 116 -198 0
-199 198 0
-199 -116 0
200 -199 0
-200 199 0
201 117 -200 0
-201 200 0
-201 -117 0
202 -201 0
-202 201 0
203 118 -202 0
-203 202 0
-203 -118 0
204 -203 0
-204 203 0
205 119 -204 0
-205 204 0
-205 -119 0
206 -205 0
-206 205 0
207 120 -206 0
-207 206 0
-207 -120 0
208 -207 0
-208 207 0
209 121 -208 0
-209 208 0
-209 -121 0
210 -209 0
-210 209 0
211 122 -210 0
-211 210 0
-211 -122 0
212 -211 0
-212 211 0
213 123 -212 0
-213 212 0
-213 -123 0
214 -213 0
-214 213 0
215 124 -214 0
-215 214 0
-215 -124 0
216 -215 0
-216 215 0
217 125 -216 0
-217 216 0
-217 -125 0
218 -217 0
-218 217 0
219 126 -218 0
-219 218 0
-219 -126 0
220 -219 0
-220 219 0
221 127 -220 0
-221 220 0
-221 -127 0
222 -221 0
-222 221 0
223 128 -222 0
-223 222 0
-223 -128 0
224 -223 0
-224 223 0
225 -128 -224 0
225 128 224 0
-225 -128 224 0
-225 128 -224 0
227 0
-227 -225 -226 0
228 -97 0
-228 97 0
229 -98 -228 0
229 98 228 0
-229 -98 228 0
-229 98 -228 0
230 -98 -228 0
-230 228 0
-230 98 0
231 -228 0
231 -230 0
231 -98 0
-231 98 228 230 0
232 -99 -231 0
232 99 231 0
-232 -99 231 0
-232 99 -231 0
233 -99 -231 0
-233 231 0
-233 99 0
234 -231 0
234 -233 0
234 -99 0
-234 99 231 233 0
235 -100 -234 0
235 100 234 0
-235 -100 234 0
-235 100 -234 0
236 -100 -234 0
-236 234 0
-236 100 0
237 -234 0
237 -236 0
237 -100 0
-237 100 234 236 0
238 -101 -237 0
238 101 237 0
-238 -101 237 0
-238 101 -237 0
239 -101 -237 0
-239 237 0
-239 101 0
240 -237 0
240 -239 0
240 -101 0
-240 101 237 239 0
241 -102 -240 0
241 102 240 0
-241 -102 240 0
-241 102 -240 0
242 -102 -240 0
-242 240 0
-242 102 0
243 -240 0
243 -242 0
243 -102 0
-243 102 240 242 0
244 -103 -243 0
244 103 243 0
-244 -103 243 0
-244 103 -243 0
245 -103 -243 0
-245 243 0
-245 103 0
246 -243 0
246 -245 0
246 -103 0
-246 103 243 245 0
247 -104 -246 0
247 104 246 0
-247 -104 246 0
-247 104 -246 0
248 -104 -246 0
-248 246 0
-248 104 0
249 -246 0
249 -248 0
249 -104 0
-249 104 246 248 0
250 -105 -249 0
250 105 249 0
-250 -105 249 0
-250 105 -249 0
251 -105 -249 0
-251 249 0
-251 105 0
252 -249 0
252 -251 0
252 -105 0
-252 105 249 251 0
253 -106 -252 0
253 106 252 0
-253 -106 252 0
-253 106 -252 0
254 -106 -252 0
-254 252 0
-254 106 0
255 -252 0
255 -254 0
255 -106 0
-255 106 252 254 0
256 -107 -255 0
256 107 255 0
-256 -107 255 0
-256 107 -255 0
257 -107 -255 0
-257 255 0
-257 107 0
258 -255 0
258 -257 0
258 -107 0
-258 107 255 257 0
259 -108 -258 0
259 108 258 0
-259 -108 258 0
-259 108 -258 0
260 -108 -258 0
-260 258 0
-260 108 0
261 -258 0
261 -260 0
261 -108 0
-261 108 258 260 0
262 -109 -261 0
262 109 261 0
-262 -109 261 0
-262 109 -261 0
263 -109 -261 0
-263 261 0
-263 109 0
264 -261 0
264 -263 0
264 -109 0
-264 109 261 263 0
265 -110 -264 0
265 110 264 0
-265 -110 264 0
-265 110 -264 0
266 -110 -264 0
-266 264 0
-266 110 0
267 -264 0
267 -266 0
267 -110 0
-267 110 264 266 0
268 -111 -267 0
268 111 267 0
-268 -111 267 0
-268 111 -267 0
269 -111 -267 0
-269 267 0
-269 111 0
270 -267 0
270 -269 0
270 -111 0
-270 111 267 269 0
271 -112 -270 0
271 112 270 0
-271 -112 270 0
-271 112 -270 0
272 -112 -270 0
-272 270 0
-272 112 0
273 -270 0
273 -272 0
273 -112 0
-273 112 270 272 0
274 -113 -273 0
274 113 273 0
-274 -113 273 0
-274 113 -273 0
275 -113 -273 0
-275 273 0
-275 113 0
276 -273 0
276 -275 0
276 -113 0
-276 113 273 275 0
277 -114 -276 0
277 114 276 0
-277 -114 276 0
-277 114 -276 0
278 -114 -276 0
-278 276 0
-278 114 0
279 -276 0
279 -278 0
279 -114 0
-279 114 276 278 0
280 -115 -279 0
280 115 279 0
-280 -115 279 0
-280 115 -279 0
281 -115 -279 0
-281 279 0
-281 115 0
282 -279 0
282 -281 0
282 -115 0
-282 115 279 281 0
283 -116 -282 0
283 116 282 0
-283 -116 282 0
-283 116 -282 0
284 -116 -282 0
-284 282 0
-284 116 0
285 -282 0
285 -284 0
285 -116 0
-285 116 282 284 0
286 -117 -285 0
286 117 285 0
-286 -117 285 0
-286 117 -285 0
287 -117 -285 0
-287 285 0
-287 117 0
288 -285 0
288 -287 0
288 -117 0
-288 117 285 287 0
289 -118 -288 0
289 118 288 0
-289 -118 288 0
-289 118 -288 0
290 -118 -288 0
-290 288 0
-290 118 0
291 -288 0
291 -290 0
291 -118 0
-291 118 288 290 0
292 -119 -291 0
292 119 291 0
-292 -119 291 0
-292 119 -291 0
293 -119 -291 0
-293 291 0
-293 119 0
294 -291 0
294 -293 0
294 -119 0
-294 119 291 293 0
295 -120 -294 0
295 120 294 0
-295 -120 294 0
-295 120 -294 0
296 -120 -294 0
-296 294 0
-296 120 0
297 -294 0
297 -296 0
297 -120 0
-297 120 294 296 0
298 -121 -297 0
298 121 297 0
-298 -121 297 0
-298 121 -297 0
299 -121 -297 0
-299 297 0
-299 121 0
300 -297 0
300 -299 0
300 -121 0
-300 121 297 299 0
301 -122 -300 0
301 122 300 0
-301 -122 300 0
-301 122 -300 0
302 -122 -300 0
-302 300 0
-302 122 0
303 -300 0
303 -302 0
303 -122 0
-303 122 300 302 0
304 -123 -303 0
304 123 303 0
-304 -123 303 0
-304 123 -303 0
305 -123 -303 0
-305 303 0
-305 123 0
306 -303 0
306 -305 0
306 -123 0
-306 123 303 305 0
307 -124 -306 0
307 124 306 0
-307 -124 306 0
-307 124 -306 0
308 -124 -306 0
-308 306 0
-308 124 0
309 -306 0
309 -308 0
309 -124 0
-309 124 306 308 0
310 -125 -309 0
310 125 309 0
-310 -125 309 0
-310 125 -309 0
311 -125 -309 0
-311 309 0
-311 125 0
312 -309 0
312 -311 0
312 -125 0
-312 125 309 311 0
313 -126 -312 0
313 126 312 0
-313 -126 312 0
-313 126 -312 0
314 -126 -312 0
-314 312 0
-314 126 0
315 -312 0
315 -314 0
315 -126 0
-315 126 312 314 0
316 -127 -315 0
316 127 315 0
-316 -127 315 0
-316 127 -315 0
317 -127 -315 0
-317 315 0
-317 127 0
318 -315 0
318 -317 0
318 -127 0
-318 127 315 317 0
319 -128 -318 0
319 128 318 0
-319 -128 318 0
-319 128 -318 0
320 -128 -318 0
-320 318 0
-320 128 0
321 -318 0
321 -320 0
321 -128 0
-321 128 318 320 0
322 -97 0
-322 97 0
323 229 -322 0
-323 322 0
-323 -229 0
324 -323 0
-324 323 0
325 232 -324 0
-325 324 0
-325 -232 0
326 -325 0
-326 325 0
327 235 -326 0
-327 326 0
-327 -235 0
328 -327 0
-328 327 0
329 238 -328 0
-329 328 0
-329 -238 0
330 -329 0
-330 329 0
331 241 -330 0
-331 330 0
-331 -241 0
332 -331 0
-332 331 0
333 244 -332 0
-333 332 0
-333 -244 0
334 -333 0
-334 333 0
335 247 -334 0
-335 334 0
-335 -247 0
336 -335 0
-336 335 0
337 250 -336 0
-337 336 0
-337 -250 0
338 -337 0
-338 337 0
339 253 -338 0
-339 338 0
-339 -253 0
340 -339 0
-340 339 0
341 256 -340 0
-341 340 0
-341 -256 0
342 -341 0
-342 341 0
343 259 -342 0
-343 342 0
-343 -259 0
344 -343 0
-344 343 0
345 262 -344 0
-345 344 0
-345 -262 0
346 -345 0
-346 345 0
347 265 -346 0
-347 346 0
-347 -265 0
348 -347 0
-348 347 0
349 268 -348 0
-349 348 0
-349 -268 0
350 -349 0
-350 349 0
351 271 -350 0
-351 350 0
-351 -271 0
352 -351 0
-352 351 0
353 274 -352 0
-353 352 0
-353 -274 0
354 -353 0
-354 353 0
355 277 -354 0
-355 354 0
-355 -277 0
356 -355 0
-356 355 0
357 280 -356 0
-357 356 0
-357 -280 0
358 -357 0
-358 357 0
359 283 -358 0
-359 358 0
-359 -283 0
360 -359 0
-360 359 0
361 286 -360 0
-361 360 0
-361 -286 0
362 -361 0
-362 361 0
363 289 -362 0
-363 362 0
-363 -289 0
364 -363 0
-364 363 0
365 292 -364 0
-365 364 0
-365 -292 0
366 -365 0
-366 365 0
367 295 -366 0
-367 366 0
-367 -295 0
368 -367 0
-368 367 0
369 298 -368 0
-369 368 0
-369 -298 0
370 -369 0
-370 369 0
371 301 -370 0
-371 370 0
-371 -301 0
372 -371 0
-372 371 0
373 304 -372 0
-373 372 0
-373 -304 0
374 -373 0
-374 373 0
375 307 -374 0
-375 374 0
-375 -307 0
376 -375 0
-376 375 0
377 310 -376 0
-377 376 0
-377 -310 0
378 -377 0
-378 377 0
379 313 -378 0
-379 378 0
-379 -313 0
380 -379 0
-380 379 0
381 316 -380 0
-381 380 0
-381 -316 0
382 -381 0
-382 381 0
383 319 -382 0
-383 382 0
-383 -319 0
384 -383 0
-384 383 0
385 -319 -384 0
385 319 384 0
-385 -319 384 0
-385 319 -384 0
387 0
-387 -385 -386 0
420 97 388 0
420 -97 -388 0
-420 -97 388 0
-420 97 -388 0
421 -229 389 0
421 229 -389 0
-421 229 389 0
-421 -229 -389 0
422 -232 390 0
422 232 -390 0
-422 232 390 0
-422 -232 -390 0
423 -235 391 0
423 235 -391 0
-423 235 391 0
-423 -235 -391 0
424 -238 392 0
424 238 -392 0
-424 238 392 0
-424 -238 -392 0
425 -241 393 0
425 241 -393 0
-425 241 393 0
-425 -241 -393 0
426 -244 394 0
426 244 -394 0
-426 244 394 0
-426 -244 -394 0
427 -247 395 0
427 247 -395 0
-427 247 395 0
-427 -247 -395 0
428 -250 396 0
428 250 -396 0
-428 250 396 0
-428 -250 -396 0
429 -253 397 0
429 253 -397 0
-429 253 397 0
-429 -253 -397 0
430 -256 398 0
430 256 -398 0
-430 256 398 0
-430 -256 -398 0
431 -259 399 0
431 259 -399 0
-431 259 399 0
-431 -259 -399 0
432 -262 400 0
432 262 -400 0
-432 262 400 0
-432 -262 -400 0
433 -265 401 0
433 265 -401 0
-433 265 401 0
-433 -265 -401 0
434 -268 402 0
434 268 -402 0
-434 268 402 0
-434 -268 -402 0
435 -271 403 0
435 271 -403 0
-435 271 403 0
-435 -271 -403 0
436 -274 404 0
436 274 -404 0
-436 274 404 0
-436 -274 -404 0
437 -277 405 0
437 277 -405 0
-437 277 405 0
-437 -277 -405 0
438 -280 406 0
438 280 -406 0
-438 280 406 0
-438 -280 -406 0
439 -283 407 0
439 283 -407 0
-439 283 407 0
-439 -283 -407 0
440 -286 408 0
440 286 -408 0
-440 286 408 0
-440 -286 -408 0
441 -289 409 0
441 289 -409 0
-441 289 409 0
-441 -289 -409 0
442 -292 410 0
442 292 -410 0
-442 292 410 0
-442 -292 -410 0
443 -295 411 0
443 295 -411 0
-443 295 411 0
-443 -295 -411 0
444 -298 412 0
444 298 -412 0
-444 298 412 0
-444 -298 -412 0
445 -301 413 0
445 301 -413 0
-445 301 413 0
-445 -301 -413 0
446 -304 414 0
446 304 -414 0
-446 304 414 0
-446 -304 -414 0
447 -307 415 0
447 307 -415 0
-447 307 415 0
-447 -307 -415 0
448 -310 416 0
448 310 -416 0
-448 310 416 0
-448 -310 -416 0
449 -313 417 0
449 313 -417 0
-449 313 417 0
-449 -313 -417 0
450 -316 418 0
450 316 -418 0
-450 316 418 0
-450 -316 -418 0
451 -319 419 0
451 319 -419 0
-451 319 419 0
-451 -319 -419 0
452 420 421 422 423 424 425 426 427 428 429 430 431 432 433 434 435 436 437 438 439 440 441 442 443 444 445 446 447 448 449 450 451 0
-452 -451 0
-452 -450 0
-452 -449 0
-452 -448 0
-452 -447 0
-452 -446 0
-452 -445 0
-452 -444 0
-452 -443 0
-452 -442 0
-452 -441 0
-452 -440 0
-452 -439 0
-452 -438 0
-452 -437 0
-452 -436 0
-452 -435 0
-452 -434 0
-452 -433 0
-452 -432 0
-452 -431 0
-452 -430 0
-452 -429 0
-452 -428 0
-452 -427 0
-452 -426 0
-452 -425 0
-452 -424 0
-452 -423 0
-452 -422 0
-452 -421 0
-452 -420 0
453 97 0
-453 -97 0
454 -229 -453 0
454 229 453 0
-454 -229 453 0
-454 229 -453 0
455 -229 -453 0
-455 453 0
-455 229 0
456 -453 0
456 -455 0
456 -229 0
-456 229 453 455 0
457 -232 -456 0
457 232 456 0
-457 -232 456 0
-457 232 -456 0
458 -232 -456 0
-458 456 0
-458 232 0
459 -456 0
459 -458 0
459 -232 0
-459 232 456 458 0
460 -235 -459 0
460 235 459 0
-460 -235 459 0
-460 235 -459 0
461 -235 -459 0
-461 459 0
-461 235 0
462 -459 0
462 -461 0
462 -235 0
-462 235 459 461 0
463 -238 -462 0
463 238 462 0
-463 -238 462 0
-463 238 -462 0
464 -238 -462 0
-464 462 0
-464 238 0
465 -462 0
465 -464 0
465 -238 0
-465 238 462 464 0
466 -241 -465 0
466 241 465 0
-466 -241 465 0
-466 241 -465 0
467 -241 -465 0
-467 465 0
-467 241 0
468 -465 0
468 -467 0
468 -241 0
-468 241 465 467 0
469 -244 -468 0
469 244 468 0
-469 -244 468 0
-469 244 -468 0
470 -244 -468 0
-470 468 0
-470 244 0
471 -468 0
471 -470 0
471 -244 0
-471 244 468 470 0
472 -247 -471 0
472 247 471 0
-472 -247 471 0
-472 247 -471 0
473 -247 -471 0
-473 471 0
-473 247 0
474 -471 0
474 -473 0
474 -247 0
-474 247 471 473 0
475 -250 -474 0
475 250 474 0
-475 -250 474 0
-475 250 -474 0
476 -250 -474 0
-476 474 0
-476 250 0
477 -474 0
477 -476 0
477 -250 0
-477 250 474 476 0
478 -253 -477 0
478 253 477 0
-478 -253 477 0
-478 253 -477 0
479 -253 -477 0
-479 477 0
-479 253 0
480 -477 0
480 -479 0
480 -253 0
-480 253 477 479 0
481 -256 -480 0
481 256 480 0
-481 -256 480 0
-481 256 -480 0
482 -256 -480 0
-482 480 0
-482 256 0
483 -480 0
483 -482 0
483 -256 0
-483 256 480 482 0
484 -259 -483 0
484 259 483 0
-484 -259 483 0
-484 259 -483 0
485 -259 -483 0
-485 483 0
-485 259 0
486 -483 0
486 -485 0
486 -259 0
-486 259 483 485 0
487 -262 -486 0
487 262 486 0
-487 -262 486 0
-487 262 -486 0
488 -262 -486 0
-488 486 0
-488 262 0
489 -486 0
489 -488 0
489 -262 0
-489 262 486 488 0
490 -265 -489 0
490 265 489 0
-490 -265 489 0
-490 265 -489 0
491 -265 -489 0
-491 489 0
-491 265 0
492 -489 0
492 -491 0
492 -265 0
-492 265 489 491 0
493 -268 -492 0
493 268 492 0
-493 -268 492 0
-493 268 -492 0
494 -268 -492 0
-494 492 0
-494 268 0
495 -492 0
495 -494 0
495 -268 0
-495 268 492 494 0
496 -271 -495 0
496 271 495 0
-496 -271 495 0
-496 271 -495 0
497 -271 -495 0
-497 495 0
-497 271 0
498 -495 0
498 -497 0
498 -271 0
-498 271 495 497 0
499 -274 -498 0
499 274 498 0
-499 -274 498 0
-499 274 -498 0
500 -274 -498 0
-500 498 0
-500 274 0
501 -498 0
501 -500 0
501 -274 0
-501 274 498 500 0
502 -277 -501 0
502 277 501 0
-502 -277 501 0
-502 277 -501 0
503 -277 -501 0
-503 501 0
-503 277 0
504 -501 0
504 -503 0
504 -277 0
-504 277 501 503 0
505 -280 -504 0
505 280 504 0
-505 -280 504 0
-505 280 -504 0
506 -280 -504 0
-506 504 0
-506 280 0
507 -504 0
507 -506 0
507 -280 0
-507 280 504 506 0
508 -283 -507 0
508 283 507 0
-508 -283 507 0
-508 283 -507 0
509 -283 -507 0
-509 507 0
-509 283 0
510 -507 0
510 -509 0
510 -283 0
-510 283 507 509 0
511 -286 -510 0
511 286 510 0
-511 -286 510 0
-511 286 -510 0
512 -286 -510 0
-512 510 0
-512 286 0
513 -510 0
513 -512 0
513 -286 0
-513 286 510 512 0
514 -289 -513 0
514 289 513 0
-514 -289 513 0
-514 289 -513 0
515 -289 -513 0
-515 513 0
-515 289 0
516 -513 0
516 -515 0
516 -289 0
-516 289 513 515 0
517 -292 -516 0
517 292 516 0
-517 -292 516 0
-517 292 -516 0
518 -292 -516 0
-518 516 0
-518 292 0
519 -516 0
519 -518 0
519 -292 0
-519 292 516 518 0
520 -295 -519 0
520 295 519 0
-520 -295 519 0
-520 295 -519 0
521 -295 -519 0
-521 519 0
-521 295 0
522 -519 0
522 -521 0
522 -295 0
-522 295 519 521 0
523 -298 -522 0
523 298 522 0
-523 -298 522 0
-523 298 -522 0
524 -298 -522 0
-524 522 0
-524 298 0
525 -522 0
525 -524 0
525 -298 0
-525 298 522 524 0
526 -301 -525 0
526 301 525 0
-526 -301 525 0
-526 301 -525 0
527 -301 -525 0
-527 525 0
-527 301 0
528 -525 0
528 -527 0
528 -301 0
-528 301 525 527 0
529 -304 -528 0
529 304 528 0
-529 -304 528 0
-529 304 -528 0
530 -304 -528 0
-530 528 0
-530 304 0
531 -528 0
531 -530 0
531 -304 0
-531 304 528 530 0
532 -307 -531 0
532 307 531 0
-532 -307 531 0
-532 307 -531 0
533 -307 -531 0
-533 531 0
-533 307 0
534 -531 0
534 -533 0
534 -307 0
-534 307 531 533 0
535 -310 -534 0
535 310 534 0
-535 -310 534 0
-535 310 -534 0
536 -310 -534 0
-536 534 0
-536 310 0
537 -534 0
537 -536 0
537 -310 0
-537 310 534 536 0
538 -313 -537 0
538 313 537 0
-538 -313 537 0
-538 313 -537 0
539 -313 -537 0
-539 537 0
-539 313 0
540 -537 0
540 -539 0
540 -313 0
-540 313 537 539 0
541 -316 -540 0
541 316 540 0
-541 -316 540 0
-541 316 -540 0
542 -316 -540 0
-542 540 0
-542 316 0
543 -540 0
543 -542 0
543 -316 0
-543 316 540 542 0
544 -319 -543 0
544 319 543 0
-544 -319 543 0
-544 319 -543 0
545 -319 -543 0
-545 543 0
-545 319 0
546 -543 0
546 -545 0
546 -319 0
-546 319 543 545 0
547 97 0
-547 -97 0
548 454 -547 0
-548 547 0
-548 -454 0
549 -548 0
-549 548 0
550 457 -549 0
-550 549 0
-550 -457 0
551 -550 0
-551 550 0
552 460 -551 0
-552 551 0
-552 -460 0
553 -552 0
-553 552 0
554 463 -553 0
-554 553 0
-554 -463 0
555 -554 0
-555 554 0
556 466 -555 0
-556 555 0
-556 -466 0
557 -556 0
-557 556 0
558 469 -557 0
-558 557 0
-558 -469 0
559 -558 0
-559 558 0
560 472 -559 0
-560 559 0
-560 -472 0
561 -560 0
-561 560 0
562 475 -561 0
-562 561 0
-562 -475 0
563 -562 0
-563 562 0
564 478 -563 0
-564 563 0
-564 -478 0
565 -564 0
-565 564 0
566 481 -565 0
-566 565 0
-566 -481 0
567 -566 0
-567 566 0
568 484 -567 0
-568 567 0
-568 -484 0
569 -568 0
-569 568 0
570 487 -569 0
-570 569 0
-570 -487 0
571 -570 0
-571 570 0
572 490 -571 0
-572 571 0
-572 -490 0
573 -572 0
-573 572 0
574 493 -573 0
-574 573 0
-574 -493 0
575 -574 0
-575 574 0
576 496 -575 0
-576 575 0
-576 -496 0
577 -576 0
-577 576 0
578 499 -577 0
-578 577 0
-578 -499 0
579 -578 0
-579 578 0
580 502 -579 0
-580 579 0
-580 -502 0
581 -580 0
-581 580 0
582 505 -581 0
-582 581 0
-582 -505 0
583 -582 0
-583 582 0
584 508 -583 0
-584 583 0
-584 -508 0
585 -584 0
-585 584 0
586 511 -585 0
-586 585 0
-586 -511 0
587 -586 0
-587 586 0
588 514 -587 0
-588 587 0
-588 -514 0
589 -588 0
-589 588 0
590 517 -589 0
-590 589 0
-590 -517 0
591 -590 0
-591 590 0
592 520 -591 0
-592 591 0
-592 -520 0
593 -592 0
-593 592 0
594 523 -593 0
-594 593 0
-594 -523 0
595 -594 0
-595 594 0
596 526 -595 0
-596 595 0
-596 -526 0
597 -596 0
-597 596 0
598 529 -597 0
-598 597 0
-598 -529 0
599 -598 0
-599 598 0
600 532 -599 0
-600 599 0
-600 -532 0
601 -600 0
-601 600 0
602 535 -601 0
-602 601 0
-602 -535 0
603 -602 0
-603 602 0
604 538 -603 0
-604 603 0
-604 -538 0
605 -604 0
-605 604 0
606 541 -605 0
-606 605 0
-606 -541 0
607 -606 0
-607 606 0
608 544 -607 0
-608 607 0
-608 -544 0
609 -608 0
-609 608 0
610 -544 -609 0
610 544 609 0
-610 -544 609 0
-610 544 -609 0
612 0
-612 -610 -611 0
613 1 -388 0
613 -1 388 0
-613 1 388 0
-613 -1 -388 0
614 2 -389 0
614 -2 389 0
-614 2 389 0
-614 -2 -389 0
615 3 -390 0
615 -3 390 0
-615 3 390 0
-615 -3 -390 0
616 4 -391 0
616 -4 391 0
-616 4 391 0
-616 -4 -391 0
617 5 -392 0
617 -5 392 0
-617 5 392 0
-617 -5 -392 0
618 6 -393 0
618 -6 393 0
-618 6 393 0
-618 -6 -393 0
619 7 -394 0
619 -7 394 0
-619 7 394 0
-619 -7 -394 0
620 8 -395 0
620 -8 395 0
-620 8 395 0
-620 -8 -395 0
621 9 -396 0
621 -9 396 0
-621 9 396 0
-621 -9 -396 0
622 10 -397 0
622 -10 397 0
-622 10 397 0
-622 -10 -397 0
623 11 -398 0
623 -11 398 0
-623 11 398 0
-623 -11 -398 0
624 12 -399 0
624 -12 399 0
-624 12 399 0
-624 -12 -399 0
625 13 -400 0
625 -13 400 0
-625 13 400 0
-625 -13 -400 0
626 14 -401 0
626 -14 401 0
-626 14 401 0
-626 -14 -401 0
627 15 -402 0
627 -15 402 0
-627 15 402 0
-627 -15 -402 0
628 16 -403 0
628 -16 403 0
-628 16 403 0
-628 -16 -403 0
629 17 -404 0
629 -17 404 0
-629 17 404 0
-629 -17 -404 0
630 18 -405 0
630 -18 405 0
-630 18 405 0
-630 -18 -405 0
631 19 -406 0
631 -19 406 0
-631 19 406 0
-631 -19 -406 0
632 20 -407 0
632 -20 407 0
-632 20 407 0
-632 -20 -407 0
633 21 -408 0
633 -21 408 0
-633 21 408 0
-633 -21 -408 0
634 22 -409 0
634 -22 409 0
-634 22 409 0
-634 -22 -409 0
635 23 -410 0
635 -23 410 0
-635 23 410 0
-635 -23 -410 0
636 24 -411 0
636 -24 411 0
-636 24 411 0
-636 -24 -411 0
637 25 -412 0
637 -25 412 0
-637 25 412 0
-637 -25 -412 0
638 26 -413 0
638 -26 413 0
-638 26 413 0
-638 -26 -413 0
639 27 -414 0
639 -27 414 0
-639 27 414 0
-639 -27 -414 0
640 28 -415 0
640 -28 415 0
-640 28 415 0
-640 -28 -415 0
641 29 -416 0
641 -29 416 0
-641 29 416 0
-641 -29 -416 0
642 30 -417 0
642 -30 417 0
-642 30 417 0
-642 -30 -417 0
643 31 -418 0
643 -31 418 0
-643 31 418 0
-643 -31 -418 0
644 32 -419 0
644 -32 419 0
-644 32 419 0
-644 -32 -419 0
645 613 614 615 616 617 618 619 620 621 622 623 624 625 626 627 628 629 630 631 632 633 634 635 636 637 638 639 640 641 642 643 644 0
-645 -644 0
-645 -643 0
-645 -642 0
-645 -641 0
-645 -640 0
-645 -639 0
-645 -638 0
-645 -637 0
-645 -636 0
-645 -635 0
-645 -634 0
-645 -633 0
-645 -632 0
-645 -631 0
-645 -630 0
-645 -629 0
-645 -628 0
-645 -627 0
-645 -626 0
-645 -625 0
-645 -624 0
-645 -623 0
-645 -622 0
-645 -621 0
-645 -620 0
-645 -619 0
-645 -618 0
-645 -617 0
-645 -616 0
-645 -615 0
-645 -614 0
-645 -613 0
646 33 -97 0
646 -33 97 0
-646 33 97 0
-646 -33 -97 0
647 34 -454 0
647 -34 454 0
-647 34 454 0
-647 -34 -454 0
648 35 -457 0
648 -35 457 0
-648 35 457 0
-648 -35 -457 0
649 36 -460 0
649 -36 460 0
-649 36 460 0
-649 -36 -460 0
650 37 -463 0
650 -37 463 0
-650 37 463 0
-650 -37 -463 0
651 38 -466 0
651 -38 466 0
-651 38 466 0
-651 -38 -466 0
652 39 -469 0
652 -39 469 0
-652 39 469 0
-652 -39 -469 0
653 40 -472 0
653 -40 472 0
-653 40 472 0
-653 -40 -472 0
654 41 -475 0
654 -41 475 0
-654 41 475 0
-654 -41 -475 0
655 42 -478 0
655 -42 478 0
-655 42 478 0
-655 -42 -478 0
656 43 -481 0
656 -43 481 0
-656 43 481 0
-656 -43 -481 0
657 44 -484 0
657 -44 484 0
-657 44 484 0
-657 -44 -484 0
658 45 -487 0
658 -45 487 0
-658 45 487 0
-658 -45 -487 0
659 46 -490 0
659 -46 490 0
-659 46 490 0
-659 -46 -490 0
660 47 -493 0
660 -47 493 0
-660 47 493 0
-660 -47 -493 0
661 48 -496 0
661 -48 496 0
-661 48 496 0
-661 -48 -496 0
662 49 -499 0
662 -49 499 0
-662 49 499 0
-662 -49 -499 0
663 50 -502 0
663 -50 502 0
-663 50 502 0
-663 -50 -502 0
664 51 -505 0
664 -51 505 0
-664 51 505 0
-664 -51 -505 0
665 52 -508 0
665 -52 508 0
-665 52 508 0
-665 -52 -508 0
666 53 -511 0
666 -53 511 0
-666 53 511 0
-666 -53 -511 0
667 54 -514 0
667 -54 514 0
-667 54 514 0
-667 -54 -514 0
668 55 -517 0
668 -55 517 0
-668 55 517 0
-668 -55 -517 0
669 56 -520 0
669 -56 520 0
-669 56 520 0
-669 -56 -520 0
670 57 -523 0
670 -57 523 0
-670 57 523 0
-670 -57 -523 0
671 58 -526 0
671 -58 526 0
-671 58 526 0
-671 -58 -526 0
672 59 -529 0
672 -59 529 0
-672 59 529 0
-672 -59 -529 0
673 60 -532 0
673 -60 532 0
-673 60 532 0
-673 -60 -532 0
674 61 -535 0
674 -61 535 0
-674 61 535 0
-674 -61 -535 0
675 62 -538 0
675 -62 538 0
-675 62 538 0
-675 -62 -538 0
676 63 -541 0
676 -63 541 0
-676 63 541 0
-676 -63 -541 0
677 64 -544 0
677 -64 544 0
-677 64 544 0
-677 -64 -544 0
678 646 647 648 649 650 651 652 653 654 655 656 657 658 659 660 661 662 663 664 665 666 667 668 669 670 671 672 673 674 675 676 677 0
-678 -677 0
-678 -676 0
-678 -675 0
-678 -674 0
-678 -673 0
-678 -672 0
-678 -671 0
-678 -670 0
-678 -669 0
-678 -668 0
-678 -667 0
-678 -666 0
-678 -665 0
-678 -664 0
-678 -663 0
-678 -662 0
-678 -661 0
-678 -660 0
-678 -659 0
-678 -658 0
-678 -657 0
-678 -656 0
-678 -655 0
-678 -654 0
-678 -653 0
-678 -652 0
-678 -651 0
-678 -650 0
-678 -649 0
-678 -648 0
-678 -647 0
-678 -646 0
679 -161 -225 -385 -452 -610 -645 -678 0
-679 678 0
-679 645 0
-679 610 0
-679 452 0
-679 385 0
-679 225 0
-679 161 0
680 1 -33 0
-680 -1 0
-680 33 0
681 1 0
681 -33 0
681 -680 0
-681 -1 33 680 0
682 2 -34 0
-682 -2 0
-682 34 0
683 -34 -681 0
-683 681 0
-683 34 0
684 2 -681 0
-684 681 0
-684 -2 0
685 -684 0
685 -683 0
685 -682 0
-685 682 683 684 0
686 3 -35 0
-686 -3 0
-686 35 0
687 -35 -685 0
-687 685 0
-687 35 0
688 3 -685 0
-688 685 0
-688 -3 0
689 -688 0
689 -687 0
689 -686 0
-689 686 687 688 0
690 4 -36 0
-690 -4 0
-690 36 0
691 -36 -689 0
-691 689 0
-691 36 0
692 4 -689 0
-692 689 0
-692 -4 0
693 -692 0
693 -691 0
693 -690 0
-693 690 691 692 0
694 5 -37 0
-694 -5 0
-694 37 0
695 -37 -693 0
-695 693 0
-695 37 0
696 5 -693 0
-696 693 0
-696 -5 0
697 -696 0
697 -695 0
697 -694 0
-697 694 695 696 0
698 6 -38 0
-698 -6 0
-698 38 0
699 -38 -697 0
-699 697 0
-699 38 0
700 6 -697 0
-700 697 0
-700 -6 0
701 -700 0
701 -699 0
701 -698 0
-701 698 699 700 0
702 7 -39 0
-702 -7 0
-702 39 0
703 -39 -701 0
-703 701 0
-703 39 0
704 7 -701 0
-704 701 0
-704 -7 0
705 -704 0
705 -703 0
705 -702 0
-705 702 703 704 0
706 8 -40 0
-706 -8 0
-706 40 0
707 -40 -705 0
-707 705 0
-707 40 0
708 8 -705 0
-708 705 0
-708 -8 0
709 -708 0
709 -707 0
709 -706 0
-709 706 707 708 0
710 9 -41 0
-710 -9 0
-710 41 0
711 -41 -709 0
-711 709 0
-711 41 0
712 9 -709 0
-712 709 0
-712 -9 0
713 -712 0
713 -711 0
713 -710 0
-713 710 711 712 0
714 10 -42 0
-714 -10 0
-714 42 0
715 -42 -713 0
-715 713 0
-715 42 0
716 10 -713 0
-716 713 0
-716 -10 0
717 -716 0
717 -715 0
717 -714 0
-717 714 715 716 0
718 11 -43 0
-718 -11 0
-718 43 0
719 -43 -717 0
-719 717 0
-719 43 0
720 11 -717 0
-720 717 0
-720 -11 0
721 -720 0
721 -719 0
721 -718 0
-721 718 719 720 0
722 12 -44 0
-722 -12 0
-722 44 0
723 -44 -721 0
-723 721 0
-723 44 0
724 12 -721 0
-724 721 0
-724 -12 0
725 -724 0
725 -723 0
725 -722 0
-725 722 723 724 0
726 13 -45 0
-726 -13 0
-726 45 0
727 -45 -725 0
-727 725 0
-727 45 0
728 13 -725 0
-728 725 0
-728 -13 0
729 -728 0
729 -727 0
729 -726 0
-729 726 727 728 0
730 14 -46 0
-730 -14 0
-730 46 0
731 -46 -729 0
-731 729 0
-731 46 0
732 14 -729 0
-732 729 0
-732 -14 0
733 -732 0
733 -731 0
733 -730 0
-733 730 731 732 0
734 15 -47 0
-734 -15 0
-734 47 0
735 -47 -733 0
-735 733 0
-735 47 0
736 15 -733 0
-736 733 0
-736 -15 0
737 -736 0
737 -735 0
737 -734 0
-737 734 735 736 0
738 16 -48 0
-738 -16 0
-738 48 0
739 -48 -737 0
-739 737 0
-739 48 0
740 16 -737 0
-740 737 0
-740 -16 0
741 -740 0
741 -739 0
741 -738 0
-741 738 739 740 0
742 17 -49 0
-742 -17 0
-742 49 0
743 -49 -741 0
-743 741 0
-743 49 0
744 17 -741 0
-744 741 0
-744 -17 0
745 -744 0
745 -743 0
745 -742 0
-745 742 743 744 0
746 18 -50 0
-746 -18 0
-746 50 0
747 -50 -745 0
-747 745 0
-747 50 0
748 18 -745 0
-748 745 0
-748 -18 0
749 -748 0
749 -747 0
749 -746 0
-749 746 747 748 0
750 19 -51 0
-750 -19 0
-750 51 0
751 -51 -749 0
-751 749 0
-751 51 0
752 19 -749 0
-752 749 0
-752 -19 0
753 -752 0
753 -751 0
753 -750 0
-753 750 751 752 0
754 20 -52 0
-754 -20 0
-754 52 0
755 -52 -753 0
-755 753 0
-755 52 0
756 20 -753 0
-756 753 0
-756 -20 0
757 -756 0
757 -755 0
757 -754 0
-757 754 755 756 0
758 21 -53 0
-758 -21 0
-758 53 0
759 -53 -757 0
-759 757 0
-759 53 0
760 21 -757 0
-760 757 0
-760 -21 0
761 -760 0
761 -759 0
761 -758 0
-761 758 759 760 0
762 22 -54 0
-762 -22 0
-762 54 0
763 -54 -761 0
-763 761 0
-763 54 0
764 22 -761 0
-764 761 0
-764 -22 0
765 -764 0
765 -763 0
765 -762 0
-765 762 763 764 0
766 23 -55 0
-766 -23 0
-766 55 0
767 -55 -765 0
-767 765 0
-767 55 0
768 23 -765 0
-768 765 0
-768 -23 0
769 -768 0
769 -767 0
769 -766 0
-769 766 767 768 0
770 24 -56 0
-770 -24 0
-770 56 0
771 -56 -769 0
-771 769 0
-771 56 0
772 24 -769 0
-772 769 0
-772 -24 0
773 -772 0
773 -771 0
773 -770 0
-773 770 771 772 0
774 25 -57 0
-774 -25 0
-774 57 0
775 -57 -773 0
-775 773 0
-775 57 0
776 25 -773 0
-776 773 0
-776 -25 0
777 -776 0
777 -775 0
777 -774 0
-777 774 775 776 0
778 26 -58 0
-778 -26 0
-778 58 0
779 -58 -777 0
-779 777 0
-779 58 0
780 26 -777 0
-780 777 0
-780 -26 0
781 -780 0
781 -779 0
781 -778 0
-781 778 779 780 0
782 27 -59 0
-782 -27 0
-782 59 0
783 -59 -781 0
-783 781 0
-783 59 0
784 27 -781 0
-784 781 0
-784 -27 0
785 -784 0
785 -783 0
785 -782 0
-785 782 783 784 0
786 28 -60 0
-786 -28 0
-786 60 0
787 -60 -785 0
-787 785 0
-787 60 0
788 28 -785 0
-788 785 0
-788 -28 0
789 -788 0
789 -787 0
789 -786 0
-789 786 787 788 0
790 29 -61 0
-790 -29 0
-790 61 0
791 -61 -789 0
-791 789 0
-791 61 0
792 29 -789 0
-792 789 0
-792 -29 0
793 -792 0
793 -791 0
793 -790 0
-793 790 791 792 0
794 30 -62 0
-794 -30 0
-794 62 0
795 -62 -793 0
-795 793 0
-795 62 0
796 30 -793 0
-796 793 0
-796 -30 0
797 -796 0
797 -795 0
797 -794 0
-797 794 795 796 0
798 31 -63 0
-798 -31 0
-798 63 0
799 -63 -797 0
-799 797 0
-799 63 0
800 31 -797 0
-800 797 0
-800 -31 0
801 -800 0
801 -799 0
801 -798 0
-801 798 799 800 0
802 32 -64 0
-802 -32 0
-802 64 0
803 -64 -801 0
-803 801 0
-803 64 0
804 32 -801 0
-804 801 0
-804 -32 0
805 -804 0
805 -803 0
805 -802 0
-805 802 803 804 0
806 -32 64 0
806 32 -64 0
-806 32 64 0
-806 -32 -64 0
807 -679 0
807 -805 -806 0
807 805 806 0
-807 805 -806 0
-807 -805 806 0
809 0
-809 -807 -808 0
810 1 -33 0
810 -1 33 0
-810 1 33 0
-810 -1 -33 0
811 2 -34 0
811 -2 34 0
-811 2 34 0
-811 -2 -34 0
812 3 -35 0
812 -3 35 0
-812 3 35 0
-812 -3 -35 0
813 4 -36 0
813 -4 36 0
-813 4 36 0
-813 -4 -36 0
814 5 -37 0
814 -5 37 0
-814 5 37 0
-814 -5 -37 0
815 6 -38 0
815 -6 38 0
-815 6 38 0
-815 -6 -38 0
816 7 -39 0
816 -7 39 0
-816 7 39 0
-816 -7 -39 0
817 8 -40 0
817 -8 40 0
-817 8 40 0
-817 -8 -40 0
818 9 -41 0
818 -9 41 0
-818 9 41 0
-818 -9 -41 0
819 10 -42 0
819 -10 42 0
-819 10 42 0
-819 -10 -42 0
820 11 -43 0
820 -11 43 0
-820 11 43 0
-820 -11 -43 0
821 12 -44 0
821 -12 44 0
-821 12 44 0
-821 -12 -44 0
822 13 -45 0
822 -13 45 0
-822 13 45 0
-822 -13 -45 0
823 14 -46 0
823 -14 46 0
-823 14 46 0
-823 -14 -46 0
824 15 -47 0
824 -15 47 0
-824 15 47 0
-824 -15 -47 0
825 16 -48 0
825 -16 48 0
-825 16 48 0
-825 -16 -48 0
826 17 -49 0
826 -17 49 0
-826 17 49 0
-826 -17 -49 0
827 18 -50 0
827 -18 50 0
-827 18 50 0
-827 -18 -50 0
828 19 -51 0
828 -19 51 0
-828 19 51 0
-828 -19 -51 0
829 20 -52 0
829 -20 52 0
-829 20 52 0
-829 -20 -52 0
830 21 -53 0
830 -21 53 0
-830 21 53 0
-830 -21 -53 0
831 22 -54 0
831 -22 54 0
-831 22 54 0
-831 -22 -54 0
832 23 -55 0
832 -23 55 0
-832 23 55 0
-832 -23 -55 0
833 24 -56 0
833 -24 56 0
-833 24 56 0
-833 -24 -56 0
834 25 -57 0
834 -25 57 0
-834 25 57 0
-834 -25 -57 0
835 26 -58 0
835 -26 58 0
-835 26 58 0
-835 -26 -58 0
836 27 -59 0
836 -27 59 0
-836 27 59 0
-836 -27 -59 0
837 28 -60 0
837 -28 60 0
-837 28 60 0
-837 -28 -60 0
838 29 -61 0
838 -29 61 0
-838 29 61 0
-838 -29 -61 0
839 30 -62 0
839 -30 62 0
-839 30 62 0
-839 -30 -62 0
840 31 -63 0
840 -31 63 0
-840 31 63 0
-840 -31 -63 0
841 32 -64 0
841 -32 64 0
-841 32 64 0
-841 -32 -64 0
842 810 811 812 813 814 815 816 817 818 819 820 821 822 823 824 825 826 827 828 829 830 831 832 833 834 835 836 837 838 839 840 841 0
-842 -841 0
-842 -840 0
-842 -839 0
-842 -838 0
-842 -837 0
-842 -836 0
-842 -835 0
-842 -834 0
-842 -833 0
-842 -832 0
-842 -831 0
-842 -830 0
-842 -829 0
-842 -828 0
-842 -827 0
-842 -826 0
-842 -825 0
-842 -824 0
-842 -823 0
-842 -822 0
-842 -821 0
-842 -820 0
-842 -819 0
-842 -818 0
-842 -817 0
-842 -816 0
-842 -815 0
-842 -814 0
-842 -813 0
-842 -812 0
-842 -811 0
-842 -810 0
907 843 -875 0
907 -843 875 0
-907 843 875 0
-907 -843 -875 0
908 844 -876 0
908 -844 876 0
-908 844 876 0
-908 -844 -876 0
909 845 -877 0
909 -845 877 0
-909 845 877 0
-909 -845 -877 0
910 846 -878 0
910 -846 878 0
-910 846 878 0
-910 -846 -878 0
911 847 -879 0
911 -847 879 0
-911 847 879 0
-911 -847 -879 0
912 848 -880 0
912 -848 880 0
-912 848 880 0
-912 -848 -880 0
913 849 -881 0
913 -849 881 0
-913 849 881 0
-913 -849 -881 0
914 850 -882 0
914 -850 882 0
-914 850 882 0
-914 -850 -882 0
915 851 -883 0
915 -851 883 0
-915 851 883 0
-915 -851 -883 0
916 852 -884 0
916 -852 884 0
-916 852 884 0
-916 -852 -884 0
917 853 -885 0
917 -853 885 0
-917 853 885 0
-917 -853 -885 0
918 854 -886 0
918 -854 886 0
-918 854 886 0
-918 -854 -886 0
919 855 -887 0
919 -855 887 0
-919 855 887 0
-919 -855 -887 0
920 856 -888 0
920 -856 888 0
-920 856 888 0
-920 -856 -888 0
921 857 -889 0
921 -857 889 0
-921 857 889 0
-921 -857 -889 0
922 858 -890 0
922 -858 890 0
-922 858 890 0
-922 -858 -890 0
923 859 -891 0
923 -859 891 0
-923 859 891 0
-923 -859 -891 0
924 860 -892 0
924 -860 892 0
-924 860 892 0
-924 -860 -892 0
925 861 -893 0
925 -861 893 0
-925 861 893 0
-925 -861 -893 0
926 862 -894 0
926 -862 894 0
-926 862 894 0
-926 -862 -894 0
927 863 -895 0
927 -863 895 0
-927 863 895 0
-927 -863 -895 0
928 864 -896 0
928 -864 896 0
-928 864 896 0
-928 -864 -896 0
929 865 -897 0
929 -865 897 0
-929 865 897 0
-929 -865 -897 0
930 866 -898 0
930 -866 898 0
-930 866 898 0
-930 -866 -898 0
931 867 -899 0
931 -867 899 0
-931 867 899 0
-931 -867 -899 0
932 868 -900 0
932 -868 900 0
-932 868 900 0
-932 -868 -900 0
933 869 -901 0
933 -869 901 0
-933 869 901 0
-933 -869 -901 0
934 870 -902 0
934 -870 902 0
-934 870 902 0
-934 -870 -902 0
935 871 -903 0
935 -871 903 0
-935 871 903 0
-935 -871 -903 0
936 872 -904 0
936 -872 904 0
-936 872 904 0
-936 -872 -904 0
937 873 -905 0
937 -873 905 0
-937 873 905 0
-937 -873 -905 0
938 874 -906 0
938 -874 906 0
-938 874 906 0
-938 -874 -906 0
939 -842 0
939 907 908 909 910 911 912 913 914 915 916 917 918 919 920 921 922 923 924 925 926 927 928 929 930 931 932 933 934 935 936 937 938 0
-939 -938 0
-939 -937 0
-939 -936 0
-939 -935 0
-939 -934 0
-939 -933 0
-939 -932 0
-939 -931 0
-939 -930 0
-939 -929 0
-939 -928 0
-939 -927 0
-939 -926 0
-939 -925 0
-939 -924 0
-939 -923 0
-939 -922 0
-939 -921 0
-939 -920 0
-939 -919 0
-939 -918 0
-939 -917 0
-939 -916 0
-939 -915 0
-939 -914 0
-939 -913 0
-939 -912 0
-939 -911 0
-939 -910 0
-939 -909 0
-939 -908 0
-939 -907 0
